n_res = 4;
rcap = [19, 22, 91, 92];
rtype = [1, 1, 2, 2];
n_tasks = 16;
modes = [ {1, 2, 3}, {4, 5, 6}, {7, 8, 9}, {10, 11, 12}, {13, 14, 15}, {16, 17, 18}, {19, 20, 21}, {22, 23, 24}, {25, 26, 27}, {28, 29, 30}, {31, 32, 33}, {34, 35, 36}, {37, 38, 39}, {40, 41, 42}, {43, 44, 45}, {46, 47, 48} ];
succ = [ {4, 5, 7}, {7, 9}, {6, 10, 11}, {12, 14}, {6, 11, 13}, {14, 15}, {8, 16}, {10, 12}, {13, 15, 16}, {13}, {12, 16}, {15}, {14}, {}, {}, {} ];
n_opt = 48;
dur = [6, 8, 10, 5, 7, 7, 6, 6, 7, 3, 3, 4, 5, 9, 10, 3, 3, 6, 1, 2, 6, 1, 10, 10, 2, 3, 10, 2, 9, 10, 2, 4, 10, 9, 9, 10, 2, 8, 10, 1, 7, 10, 1, 3, 6, 3, 9, 9];
rreq = [|  0,  6,  5,  6,  6,  0,  0,  7,  0,  0,  8,  7,  6,  4,  0,  8,  0,  8,  9,  8,  4,  6,  0,  0,  4,  4,  0,  5,  3,  0,  0,  0,  0,  9,  0, 10,  7,  2,  0,  7,  7,  6,  2,  0,  0,  0,  0,  5
        |  7,  0,  0,  0,  0,  7,  9,  0,  9,  7,  0,  0,  0,  0,  9,  0,  4,  0,  0,  0,  0,  0,  5,  6,  0,  0,  6,  0,  0,  1,  4,  4,  4,  0,  3,  0,  0,  0,  8,  0,  0,  0,  0,  6,  2,  8,  8,  0
        |  5,  5,  2,  8,  7,  5,  6,  6,  4,  9,  9,  8,  7,  4,  4,  4,  4,  3,  6,  5,  2,  6,  5,  4,  6,  6,  5,  8,  7,  7,  9,  8,  8,  6,  6,  5,  8,  5,  3,  6,  6,  5,  2,  2,  2, 10,  8,  8
        |  9,  8,  7,  3,  3,  3,  8,  9,  4,  8,  8,  6,  8,  7,  6,  9,  8,  6,  7,  5,  4, 10,  6,  6,  9,  8,  7,  4,  4,  2,  8,  8,  6,  6,  4,  3,  2,  2,  1,  7,  6,  5,  8,  6,  4,  5,  5,  2 |];
